************************************************************************
file with basedata            : cn39_.bas
initial value random generator: 1848102394
************************************************************************
projects                      :  1
jobs (incl. supersource/sink ):  18
horizon                       :  119
RESOURCES
  - renewable                 :  2   R
  - nonrenewable              :  3   N
  - doubly constrained        :  0   D
************************************************************************
PROJECT INFORMATION:
pronr.  #jobs rel.date duedate tardcost  MPM-Time
    1     16      0       19       13       19
************************************************************************
PRECEDENCE RELATIONS:
jobnr.    #modes  #successors   successors
   1        1          3           2   3   4
   2        3          3           6  10  11
   3        3          2           5  10
   4        3          2           7   9
   5        3          2           6  16
   6        3          3          12  13  14
   7        3          2           8  11
   8        3          3          14  15  16
   9        3          1          12
  10        3          3          12  13  16
  11        3          2          14  15
  12        3          1          17
  13        3          2          15  17
  14        3          1          17
  15        3          1          18
  16        3          1          18
  17        3          1          18
  18        1          0        
************************************************************************
REQUESTS/DURATIONS:
jobnr. mode duration  R 1  R 2  N 1  N 2  N 3
------------------------------------------------------------------------
  1      1     0       0    0    0    0    0
  2      1     5       2    0    0    6    0
         2     7       0    1    0    4    0
         3     9       0    1    8    3    0
  3      1     3       0    3   10    0   10
         2     5       3    0    0    0   10
         3     8       0    3    9    0    9
  4      1     4       3    0    6    0    7
         2     5       3    0    6    0    4
         3     5       0    7    0    0    5
  5      1     2       0    4    4    7    8
         2     9       6    0    0    0    6
         3     9       0    3    2    0    8
  6      1     1       4    0    2   10    0
         2     4       0    7    2    0    4
         3     4       4    0    0    0    3
  7      1     3       0    9    0    0    8
         2     3       2    0   10    6    6
         3     8       0   10    9    0    5
  8      1     5       1    0    0    9    0
         2     9       0    1    4    0    3
         3    10       0    1    0    8    0
  9      1     2       0    7    8    0    0
         2     9       0    4    0    9    7
         3    10       0    2    0    8    0
 10      1     2       3    0    0    0    8
         2     9       0    7    8    0    0
         3    10       0    5    8    0    3
 11      1     2       9    0    0    0    4
         2     3       7    0    0    0    3
         3     8       0    8    0    0    1
 12      1     4       0    6    9    7    9
         2     5       6    0    8    6    0
         3     6       3    0    8    0    0
 13      1     2       7    0    0    0    2
         2     6       6    0    4    0    0
         3     7       4    0    3    0    0
 14      1     2       0    5    0    2    0
         2     3       0    3    0    2    5
         3     8       5    0    3    0    0
 15      1     7       7    0    0    0    6
         2     7       0    3    9    0    0
         3     8       7    0    0    5    4
 16      1     1      10    0    0    5    0
         2     3       0    7   10    4    6
         3     4       3    0    0    4    4
 17      1     3       9    0    4    0    0
         2     3       0    4    2    0    3
         3     5       0    2    0    0    2
 18      1     0       0    0    0    0    0
************************************************************************
RESOURCEAVAILABILITIES:
  R 1  R 2  N 1  N 2  N 3
    8    8   54   37   58
************************************************************************
